80 14042368
70 18 31 55 75 76 74 61 33 25 78 14 62 29 5 35 47 4 65 2 67 53 24 37 15 46 38 16 8 63 6 41 56 23 21 54 10 48 73 26 30 69 77 80 52 28 39 59 22 11 60 27 1 3 64 49 34 40 44 43 51 36 58 9 32 13 7 17 71 68 57 45 66 12 79 20 19 72 42 50 
